\ Model Core
\ LP format - for model browsing. Use MPS format to capture full model detail.
Minimize
  0 g[0,0] + 0 g[0,1] + 0 g[0,2] + 0 g[0,3] + 0 g[0,4] + 0 g[0,5] + 0 g[0,6]
   + 0 g[0,7] + 0 g[1,0] + 0 g[1,1] + 0 g[1,2] + 0 g[1,3] + 0 g[1,4]
   + 0 g[1,5] + 0 g[1,6] + 0 g[1,7] + 0 g[2,0] + 0 g[2,1] + 0 g[2,3]
   + 0 g[2,4] + 0 g[2,5] + 0 g[2,6] + 0 g[2,7] + 0 g[3,0] + 0 g[3,1]
   + 0 g[3,2] + 0 g[3,3] + 0 g[3,4] + 0 g[3,5] + 0 g[3,6] + 0 g[3,7]
   + 0 g[4,0] + 0 g[4,1] + 0 g[4,2] + 0 g[4,3] + 0 g[4,5] + 0 g[4,6]
   + 0 g[4,7] + 0 g[5,0] + 0 g[5,1] + 0 g[5,2] + 0 g[5,3] + 0 g[5,4]
   + 0 g[5,5] + 0 g[5,6] + 0 g[5,7] + 0 g[6,0] + 0 g[6,1] + 0 g[6,2]
   + 0 g[6,3] + 0 g[6,4] + 0 g[6,5] + 0 g[6,7] + 0 g[7,0] + 0 g[7,1]
   + 0 g[7,2] + 0 g[7,3] + 0 g[7,4] + 0 g[7,5] + 0 g[7,6] + v
Subject To
 simplex_constraint: x[0] + x[1] + x[2] + x[3] + x[4] + x[5] + x[6] + x[7]
   = 1
 minmax_constraint: - x[2] + v >= -0.3333333333333333
 minmax_constraint: - x[2] - x[4] + v >= -0.6666666666666666
 minmax_constraint: - x[2] - x[6] + v >= -0.6666666666666666
 dual_constraint: t[0] + t[1] + t[2] <= 2
 R5: g[2,2] + g[4,4] + g[6,6] + g[7,7] = 1
 qc0: [ x[1] * t[0] ] >= 0
 qc1: - g[2,2] + [ x[2] * t[1] ] >= 0
 qc2: [ x[3] * t[2] ] >= 0
 qc3: - g[4,4] + [ x[4] * t[0] ] >= 0
 qc4: - g[4,4] + [ x[4] * t[1] ] >= 0
 qc5: [ x[5] * t[0] ] >= 0
 qc6: [ x[5] * t[2] ] >= 0
 qc7: - g[6,6] + [ x[6] * t[1] ] >= 0
 qc8: - g[6,6] + [ x[6] * t[2] ] >= 0
 qc9: - g[7,7] + [ x[7] * t[0] ] >= 0
 qc10: - g[7,7] + [ x[7] * t[1] ] >= 0
 qc11: - g[7,7] + [ x[7] * t[2] ] >= 0
Bounds
 x[0] <= 1
 x[1] <= 1
 x[2] <= 1
 x[3] <= 1
 x[4] <= 1
 x[5] <= 1
 x[6] <= 1
 x[7] <= 1
 -2 <= v <= 2
End
